Traveling Salesman Problem/TSP_generados/Aleatorio1621103325_10.tsp
NAME: Aleatorio1621103325_10.tsp
COMMENT: Randomly generated scenario
TYPE: TSP
DIMENSION: 10
EDGE_WEIGHT_TYPE: ATT
NODE_COORD_SECTION
1 39.24 30.3
2 27.09 8.95
3 13.73 5.11
4 31.66 47.4
5 36.44 21.49
6 44.47 11.55
7 4.03 8.11
8 5.54 11.22
9 29.21 6.89
10 40.31 15.55
