Traveling Salesman Problem/TSP_generados/Aleatorio1621103325_10.opt.tour
NAME: Aleatorio1621103325_10.opt.tour
COMMENT: Optimal solution for Aleatorio1621103325_10 (131.85601657306802)
TYPE: TOUR
DIMENSION: 10
TOUR_SECTION
1 5 10 6 9 2 3 7 8 4
-1
EOF
